p edge 300 1800
e 1 58
e 1 58
e 1 122
e 1 147
e 1 206
e 1 271
e 2 37
e 2 116
e 2 121
e 2 136
e 2 256
e 2 298
e 3 51
e 3 58
e 3 119
e 3 121
e 3 179
e 3 256
e 4 18
e 4 46
e 4 73
e 4 177
e 4 218
e 4 252
e 5 11
e 5 32
e 5 50
e 5 97
e 5 107
e 5 241
e 6 34
e 6 65
e 6 176
e 6 181
e 6 218
e 6 290
e 7 11
e 7 16
e 7 34
e 7 75
e 7 144
e 7 248
e 8 4
e 8 31
e 8 49
e 8 120
e 8 158
e 8 199
e 9 86
e 9 156
e 9 174
e 9 181
e 9 238
e 9 256
e 10 6
e 10 9
e 10 32
e 10 104
e 10 150
e 10 222
e 11 50
e 11 110
e 11 113
e 11 190
e 11 195
e 11 292
e 12 19
e 12 93
e 12 152
e 12 224
e 12 252
e 12 293
e 13 4
e 13 89
e 13 104
e 13 148
e 13 247
e 13 278
e 14 44
e 14 47
e 14 103
e 14 119
e 14 156
e 14 225
e 15 17
e 15 24
e 15 37
e 15 150
e 15 251
e 15 276
e 16 81
e 16 89
e 16 110
e 16 119
e 16 192
e 16 209
e 17 5
e 17 48
e 17 90
e 17 198
e 17 217
e 17 275
e 18 23
e 18 36
e 18 69
e 18 168
e 18 213
e 18 299
e 19 9
e 19 151
e 19 171
e 19 173
e 19 174
e 19 216
e 20 56
e 20 127
e 20 170
e 20 174
e 20 186
e 20 218
e 21 18
e 21 72
e 21 99
e 21 173
e 21 241
e 21 243
e 22 7
e 22 99
e 22 106
e 22 117
e 22 152
e 22 209
e 23 70
e 23 94
e 23 137
e 23 173
e 23 178
e 23 187
e 24 14
e 24 74
e 24 187
e 24 220
e 24 242
e 24 256
e 25 70
e 25 168
e 25 180
e 25 193
e 25 219
e 25 226
e 26 19
e 26 102
e 26 121
e 26 197
e 26 235
e 26 248
e 27 42
e 27 90
e 27 115
e 27 118
e 27 189
e 27 250
e 28 2
e 28 133
e 28 137
e 28 153
e 28 247
e 28 283
e 29 31
e 29 57
e 29 115
e 29 198
e 29 221
e 29 287
e 30 55
e 30 176
e 30 189
e 30 252
e 30 258
e 30 296
e 31 3
e 31 58
e 31 114
e 31 119
e 31 182
e 31 252
e 32 5
e 32 54
e 32 138
e 32 188
e 32 240
e 32 283
e 33 21
e 33 58
e 33 99
e 33 178
e 33 195
e 33 292
e 34 75
e 34 101
e 34 134
e 34 135
e 34 158
e 34 176
e 35 5
e 35 14
e 35 131
e 35 187
e 35 248
e 35 287
e 36 128
e 36 151
e 36 234
e 36 247
e 36 263
e 36 296
e 37 17
e 37 74
e 37 117
e 37 169
e 37 179
e 37 236
e 38 9
e 38 57
e 38 79
e 38 204
e 38 277
e 38 296
e 39 8
e 39 51
e 39 53
e 39 152
e 39 167
e 39 255
e 40 4
e 40 136
e 40 142
e 40 196
e 40 227
e 40 275
e 41 8
e 41 12
e 41 95
e 41 200
e 41 266
e 41 274
e 42 8
e 42 57
e 42 190
e 42 205
e 42 229
e 42 259
e 43 98
e 43 123
e 43 178
e 43 233
e 43 254
e 43 275
e 44 2
e 44 53
e 44 101
e 44 179
e 44 179
e 44 226
e 45 61
e 45 68
e 45 186
e 45 273
e 45 279
e 45 288
e 46 182
e 46 185
e 46 209
e 46 235
e 46 256
e 46 266
e 47 33
e 47 38
e 47 102
e 47 119
e 47 244
e 47 260
e 48 17
e 48 31
e 48 37
e 48 75
e 48 146
e 48 272
e 49 3
e 49 36
e 49 79
e 49 105
e 49 158
e 49 194
e 50 44
e 50 88
e 50 109
e 50 179
e 50 275
e 50 291
e 51 14
e 51 46
e 51 57
e 51 156
e 51 223
e 51 292
e 52 34
e 52 161
e 52 183
e 52 189
e 52 225
e 52 299
e 53 23
e 53 77
e 53 104
e 53 117
e 53 152
e 53 204
e 54 27
e 54 39
e 54 100
e 54 130
e 54 149
e 54 194
e 55 58
e 55 143
e 55 165
e 55 165
e 55 222
e 55 237
e 56 75
e 56 101
e 56 152
e 56 162
e 56 196
e 56 291
e 57 13
e 57 51
e 57 58
e 57 174
e 57 175
e 57 218
e 58 26
e 58 143
e 58 194
e 58 194
e 58 195
e 58 260
e 59 45
e 59 54
e 59 77
e 59 158
e 59 205
e 59 214
e 60 51
e 60 56
e 60 89
e 60 95
e 60 119
e 60 268
e 61 69
e 61 132
e 61 153
e 61 237
e 61 242
e 61 284
e 62 42
e 62 89
e 62 108
e 62 227
e 62 257
e 62 262
e 63 7
e 63 15
e 63 39
e 63 120
e 63 230
e 63 237
e 64 76
e 64 111
e 64 116
e 64 124
e 64 126
e 64 233
e 65 17
e 65 114
e 65 141
e 65 204
e 65 209
e 65 232
e 66 160
e 66 191
e 66 199
e 66 205
e 66 215
e 66 232
e 67 14
e 67 31
e 67 31
e 67 55
e 67 161
e 67 203
e 68 44
e 68 65
e 68 130
e 68 270
e 68 272
e 68 282
e 69 1
e 69 53
e 69 76
e 69 91
e 69 122
e 69 136
e 70 106
e 70 120
e 70 202
e 70 259
e 70 282
e 70 298
e 71 34
e 71 50
e 71 122
e 71 235
e 71 281
e 71 289
e 72 11
e 72 29
e 72 114
e 72 121
e 72 148
e 72 167
e 73 16
e 73 93
e 73 117
e 73 147
e 73 159
e 73 263
e 74 70
e 74 103
e 74 170
e 74 175
e 74 180
e 74 234
e 75 61
e 75 62
e 75 104
e 75 112
e 75 224
e 75 286
e 76 43
e 76 87
e 76 129
e 76 148
e 76 272
e 76 283
e 77 12
e 77 22
e 77 32
e 77 134
e 77 160
e 77 172
e 78 1
e 78 7
e 78 8
e 78 184
e 78 226
e 78 246
e 79 39
e 79 43
e 79 105
e 79 120
e 79 135
e 79 241
e 80 59
e 80 111
e 80 128
e 80 139
e 80 249
e 80 256
e 81 2
e 81 34
e 81 82
e 81 96
e 81 241
e 81 254
e 82 48
e 82 96
e 82 197
e 82 232
e 82 262
e 82 285
e 83 15
e 83 17
e 83 79
e 83 181
e 83 219
e 83 296
e 84 2
e 84 76
e 84 130
e 84 130
e 84 188
e 84 262
e 85 26
e 85 44
e 85 59
e 85 208
e 85 245
e 85 298
e 86 80
e 86 125
e 86 146
e 86 200
e 86 246
e 86 284
e 87 10
e 87 65
e 87 75
e 87 96
e 87 141
e 87 242
e 88 36
e 88 44
e 88 66
e 88 214
e 88 266
e 88 275
e 89 105
e 89 135
e 89 168
e 89 209
e 89 277
e 89 290
e 90 52
e 90 81
e 90 120
e 90 121
e 90 165
e 90 234
e 91 53
e 91 129
e 91 148
e 91 179
e 91 285
e 91 288
e 92 29
e 92 74
e 92 123
e 92 184
e 92 282
e 92 283
e 93 22
e 93 84
e 93 107
e 93 155
e 93 171
e 93 231
e 94 96
e 94 183
e 94 201
e 94 254
e 94 274
e 94 289
e 95 17
e 95 121
e 95 162
e 95 249
e 95 258
e 95 290
e 96 106
e 96 109
e 96 138
e 96 172
e 96 241
e 96 241
e 97 46
e 97 145
e 97 156
e 97 193
e 97 229
e 97 278
e 98 28
e 98 30
e 98 76
e 98 156
e 98 247
e 98 265
e 99 27
e 99 66
e 99 105
e 99 157
e 99 230
e 99 239
e 100 67
e 100 78
e 100 86
e 100 194
e 100 221
e 100 260
e 101 20
e 101 29
e 101 142
e 101 183
e 101 217
e 101 233
e 102 4
e 102 7
e 102 43
e 102 63
e 102 70
e 102 201
e 103 108
e 103 160
e 103 192
e 103 264
e 103 284
e 103 284
e 104 99
e 104 128
e 104 226
e 104 228
e 104 273
e 104 300
e 105 30
e 105 36
e 105 118
e 105 128
e 105 187
e 105 265
e 106 38
e 106 42
e 106 81
e 106 109
e 106 175
e 106 284
e 107 10
e 107 54
e 107 82
e 107 125
e 107 127
e 107 195
e 108 40
e 108 60
e 108 102
e 108 249
e 108 265
e 108 282
e 109 11
e 109 48
e 109 76
e 109 85
e 109 170
e 109 194
e 110 19
e 110 28
e 110 43
e 110 48
e 110 169
e 110 271
e 111 35
e 111 40
e 111 78
e 111 135
e 111 171
e 111 253
e 112 69
e 112 100
e 112 130
e 112 143
e 112 193
e 112 225
e 113 79
e 113 131
e 113 142
e 113 246
e 113 263
e 113 289
e 114 100
e 114 113
e 114 142
e 114 152
e 114 152
e 114 202
e 115 38
e 115 73
e 115 138
e 115 204
e 115 248
e 115 279
e 116 40
e 116 41
e 116 165
e 116 286
e 116 293
e 116 297
e 117 53
e 117 166
e 117 169
e 117 175
e 117 203
e 117 262
e 118 12
e 118 26
e 118 97
e 118 166
e 118 182
e 118 219
e 119 46
e 119 87
e 119 125
e 119 180
e 119 216
e 119 295
e 120 73
e 120 107
e 120 139
e 120 186
e 120 214
e 120 270
e 121 10
e 121 30
e 121 117
e 121 177
e 121 189
e 121 289
e 122 14
e 122 76
e 122 151
e 122 230
e 122 234
e 122 285
e 123 26
e 123 35
e 123 37
e 123 53
e 123 98
e 123 252
e 124 23
e 124 90
e 124 97
e 124 149
e 124 248
e 124 278
e 125 66
e 125 115
e 125 121
e 125 207
e 125 215
e 125 298
e 126 67
e 126 70
e 126 144
e 126 245
e 126 261
e 126 284
e 127 129
e 127 152
e 127 169
e 127 211
e 127 279
e 127 283
e 128 26
e 128 93
e 128 205
e 128 205
e 128 274
e 128 276
e 129 2
e 129 2
e 129 51
e 129 69
e 129 157
e 129 281
e 130 7
e 130 31
e 130 106
e 130 158
e 130 233
e 130 297
e 131 30
e 131 53
e 131 72
e 131 121
e 131 132
e 131 245
e 132 11
e 132 24
e 132 154
e 132 163
e 132 191
e 132 205
e 133 77
e 133 98
e 133 152
e 133 188
e 133 207
e 133 226
e 134 20
e 134 60
e 134 73
e 134 169
e 134 224
e 134 246
e 135 25
e 135 31
e 135 169
e 135 256
e 135 277
e 135 296
e 136 22
e 136 50
e 136 80
e 136 188
e 136 194
e 136 234
e 137 18
e 137 89
e 137 106
e 137 110
e 137 166
e 137 218
e 138 10
e 138 28
e 138 33
e 138 82
e 138 197
e 138 228
e 139 5
e 139 25
e 139 82
e 139 119
e 139 236
e 139 269
e 140 2
e 140 191
e 140 231
e 140 248
e 140 255
e 140 268
e 141 2
e 141 91
e 141 220
e 141 238
e 141 262
e 141 295
e 142 96
e 142 135
e 142 176
e 142 189
e 142 196
e 142 280
e 143 31
e 143 37
e 143 61
e 143 142
e 143 146
e 143 152
e 144 41
e 144 91
e 144 121
e 144 203
e 144 258
e 144 287
e 145 112
e 145 125
e 145 171
e 145 199
e 145 236
e 145 258
e 146 160
e 146 178
e 146 224
e 146 227
e 146 260
e 146 282
e 147 5
e 147 51
e 147 97
e 147 195
e 147 196
e 147 259
e 148 6
e 148 28
e 148 48
e 148 59
e 148 101
e 148 137
e 149 23
e 149 116
e 149 118
e 149 148
e 149 174
e 149 243
e 150 9
e 150 86
e 150 158
e 150 211
e 150 214
e 150 216
e 151 69
e 151 146
e 151 163
e 151 211
e 151 223
e 151 300
e 152 68
e 152 144
e 152 168
e 152 179
e 152 211
e 152 246
e 153 14
e 153 105
e 153 189
e 153 194
e 153 253
e 153 267
e 154 46
e 154 63
e 154 68
e 154 98
e 154 210
e 154 293
e 155 45
e 155 73
e 155 120
e 155 186
e 155 188
e 155 240
e 156 10
e 156 85
e 156 158
e 156 248
e 156 259
e 156 294
e 157 56
e 157 58
e 157 62
e 157 96
e 157 156
e 157 294
e 158 52
e 158 69
e 158 124
e 158 156
e 158 255
e 158 277
e 159 96
e 159 171
e 159 184
e 159 218
e 159 225
e 159 229
e 160 41
e 160 86
e 160 145
e 160 232
e 160 292
e 160 294
e 161 48
e 161 111
e 161 113
e 161 135
e 161 149
e 161 210
e 162 18
e 162 126
e 162 133
e 162 148
e 162 209
e 162 219
e 163 6
e 163 61
e 163 66
e 163 82
e 163 123
e 163 171
e 164 4
e 164 79
e 164 99
e 164 130
e 164 173
e 164 184
e 165 6
e 165 52
e 165 102
e 165 116
e 165 280
e 165 287
e 166 132
e 166 194
e 166 203
e 166 208
e 166 251
e 166 280
e 167 23
e 167 62
e 167 109
e 167 125
e 167 241
e 167 290
e 168 119
e 168 142
e 168 198
e 168 242
e 168 289
e 168 293
e 169 41
e 169 106
e 169 107
e 169 177
e 169 233
e 169 294
e 170 41
e 170 44
e 170 119
e 170 142
e 170 258
e 170 300
e 171 38
e 171 51
e 171 75
e 171 96
e 171 116
e 171 263
e 172 35
e 172 62
e 172 93
e 172 221
e 172 246
e 172 285
e 173 33
e 173 86
e 173 97
e 173 98
e 173 207
e 173 230
e 174 36
e 174 69
e 174 199
e 174 215
e 174 228
e 174 255
e 175 43
e 175 46
e 175 66
e 175 110
e 175 240
e 175 260
e 176 55
e 176 106
e 176 120
e 176 202
e 176 228
e 176 280
e 177 70
e 177 82
e 177 171
e 177 178
e 177 237
e 177 276
e 178 62
e 178 90
e 178 91
e 178 99
e 178 112
e 178 298
e 179 25
e 179 102
e 179 123
e 179 188
e 179 196
e 179 244
e 180 14
e 180 48
e 180 53
e 180 67
e 180 112
e 180 276
e 181 6
e 181 39
e 181 107
e 181 121
e 181 274
e 181 282
e 182 103
e 182 123
e 182 196
e 182 210
e 182 241
e 182 262
e 183 22
e 183 97
e 183 125
e 183 215
e 183 221
e 183 279
e 184 35
e 184 79
e 184 186
e 184 193
e 184 213
e 184 284
e 185 51
e 185 54
e 185 126
e 185 176
e 185 232
e 185 274
e 186 85
e 186 103
e 186 137
e 186 162
e 186 276
e 186 289
e 187 10
e 187 14
e 187 37
e 187 43
e 187 127
e 187 280
e 188 4
e 188 49
e 188 52
e 188 140
e 188 248
e 188 264
e 189 18
e 189 79
e 189 96
e 189 220
e 189 244
e 189 294
e 190 61
e 190 158
e 190 257
e 190 262
e 190 293
e 190 296
e 191 11
e 191 22
e 191 46
e 191 124
e 191 193
e 191 238
e 192 72
e 192 97
e 192 209
e 192 213
e 192 247
e 192 285
e 193 1
e 193 158
e 193 240
e 193 254
e 193 265
e 193 267
e 194 63
e 194 70
e 194 71
e 194 192
e 194 201
e 194 204
e 195 18
e 195 19
e 195 165
e 195 200
e 195 240
e 195 269
e 196 19
e 196 63
e 196 137
e 196 230
e 196 234
e 196 294
e 197 29
e 197 40
e 197 50
e 197 62
e 197 238
e 197 277
e 198 22
e 198 101
e 198 106
e 198 121
e 198 231
e 198 267
e 199 20
e 199 28
e 199 70
e 199 170
e 199 236
e 199 255
e 200 25
e 200 70
e 200 235
e 200 262
e 200 280
e 200 300
e 201 10
e 201 23
e 201 94
e 201 186
e 201 213
e 201 253
e 202 41
e 202 85
e 202 135
e 202 146
e 202 154
e 202 191
e 203 118
e 203 129
e 203 155
e 203 164
e 203 184
e 203 213
e 204 15
e 204 34
e 204 56
e 204 184
e 204 202
e 204 242
e 205 120
e 205 191
e 205 224
e 205 236
e 205 260
e 205 263
e 206 74
e 206 81
e 206 94
e 206 98
e 206 191
e 206 294
e 207 4
e 207 72
e 207 99
e 207 114
e 207 229
e 207 243
e 208 9
e 208 20
e 208 150
e 208 154
e 208 173
e 208 210
e 209 17
e 209 92
e 209 98
e 209 163
e 209 182
e 209 272
e 210 15
e 210 153
e 210 265
e 210 279
e 210 282
e 210 299
e 211 15
e 211 54
e 211 183
e 211 257
e 211 267
e 211 268
e 212 100
e 212 127
e 212 229
e 212 275
e 212 276
e 212 282
e 213 44
e 213 68
e 213 203
e 213 246
e 213 270
e 213 290
e 214 17
e 214 87
e 214 174
e 214 216
e 214 273
e 214 276
e 215 18
e 215 61
e 215 138
e 215 289
e 215 292
e 215 293
e 216 8
e 216 42
e 216 108
e 216 236
e 216 254
e 216 286
e 217 64
e 217 220
e 217 231
e 217 250
e 217 273
e 217 284
e 218 83
e 218 88
e 218 99
e 218 183
e 218 231
e 218 257
e 219 64
e 219 95
e 219 126
e 219 128
e 219 159
e 219 171
e 220 45
e 220 117
e 220 120
e 220 138
e 220 192
e 220 278
e 221 2
e 221 51
e 221 62
e 221 109
e 221 113
e 221 159
e 222 15
e 222 56
e 222 122
e 222 149
e 222 237
e 222 275
e 223 68
e 223 91
e 223 93
e 223 167
e 223 194
e 223 238
e 224 17
e 224 20
e 224 31
e 224 75
e 224 220
e 224 254
e 225 3
e 225 41
e 225 81
e 225 180
e 225 195
e 225 241
e 226 34
e 226 122
e 226 160
e 226 192
e 226 205
e 226 218
e 227 56
e 227 58
e 227 115
e 227 184
e 227 194
e 227 266
e 228 20
e 228 46
e 228 68
e 228 175
e 228 181
e 228 296
e 229 2
e 229 108
e 229 110
e 229 266
e 229 266
e 229 291
e 230 34
e 230 63
e 230 68
e 230 132
e 230 184
e 230 200
e 231 146
e 231 149
e 231 154
e 231 187
e 231 206
e 231 266
e 232 46
e 232 95
e 232 123
e 232 203
e 232 208
e 232 209
e 233 2
e 233 20
e 233 38
e 233 102
e 233 150
e 233 207
e 234 14
e 234 59
e 234 139
e 234 148
e 234 253
e 234 268
e 235 24
e 235 31
e 235 42
e 235 202
e 235 244
e 235 289
e 236 58
e 236 75
e 236 124
e 236 140
e 236 172
e 236 251
e 237 26
e 237 40
e 237 117
e 237 126
e 237 269
e 237 297
e 238 22
e 238 119
e 238 155
e 238 228
e 238 253
e 238 284
e 239 25
e 239 79
e 239 172
e 239 233
e 239 254
e 239 269
e 240 82
e 240 100
e 240 130
e 240 164
e 240 252
e 240 289
e 241 53
e 241 140
e 241 146
e 241 158
e 241 229
e 241 259
e 242 39
e 242 48
e 242 70
e 242 106
e 242 150
e 242 276
e 243 8
e 243 15
e 243 94
e 243 161
e 243 193
e 243 283
e 244 11
e 244 16
e 244 181
e 244 235
e 244 268
e 244 299
e 245 12
e 245 49
e 245 180
e 245 244
e 245 257
e 245 273
e 246 9
e 246 143
e 246 176
e 246 195
e 246 213
e 246 298
e 247 46
e 247 141
e 247 150
e 247 151
e 247 239
e 247 300
e 248 55
e 248 197
e 248 198
e 248 261
e 248 266
e 248 300
e 249 6
e 249 19
e 249 37
e 249 41
e 249 158
e 249 275
e 250 30
e 250 34
e 250 35
e 250 96
e 250 103
e 250 278
e 251 46
e 251 53
e 251 77
e 251 206
e 251 217
e 251 286
e 252 5
e 252 38
e 252 41
e 252 126
e 252 226
e 252 236
e 253 33
e 253 67
e 253 68
e 253 124
e 253 230
e 253 235
e 254 79
e 254 80
e 254 85
e 254 184
e 254 229
e 254 263
e 255 78
e 255 83
e 255 86
e 255 105
e 255 145
e 255 290
e 256 110
e 256 156
e 256 173
e 256 202
e 256 241
e 256 247
e 257 27
e 257 67
e 257 122
e 257 240
e 257 282
e 257 293
e 258 55
e 258 68
e 258 81
e 258 156
e 258 162
e 258 247
e 259 37
e 259 139
e 259 147
e 259 200
e 259 266
e 259 266
e 260 8
e 260 24
e 260 46
e 260 124
e 260 125
e 260 281
e 261 74
e 261 98
e 261 125
e 261 164
e 261 229
e 261 297
e 262 45
e 262 72
e 262 194
e 262 200
e 262 246
e 262 254
e 263 53
e 263 60
e 263 131
e 263 183
e 263 191
e 263 239
e 264 46
e 264 56
e 264 58
e 264 77
e 264 179
e 264 250
e 265 44
e 265 60
e 265 78
e 265 94
e 265 247
e 265 281
e 266 71
e 266 76
e 266 105
e 266 114
e 266 131
e 266 280
e 267 36
e 267 127
e 267 133
e 267 253
e 267 260
e 267 288
e 268 32
e 268 85
e 268 86
e 268 208
e 268 250
e 268 253
e 269 12
e 269 22
e 269 54
e 269 91
e 269 142
e 269 201
e 270 15
e 270 81
e 270 137
e 270 138
e 270 144
e 270 215
e 271 31
e 271 43
e 271 144
e 271 197
e 271 232
e 271 251
e 272 14
e 272 98
e 272 147
e 272 239
e 272 268
e 272 295
e 273 47
e 273 101
e 273 178
e 273 190
e 273 234
e 273 276
e 274 71
e 274 144
e 274 154
e 274 181
e 274 280
e 274 282
e 275 87
e 275 137
e 275 175
e 275 182
e 275 244
e 275 273
e 276 100
e 276 145
e 276 161
e 276 227
e 276 255
e 276 280
e 277 52
e 277 70
e 277 128
e 277 179
e 277 222
e 277 231
e 278 47
e 278 61
e 278 74
e 278 120
e 278 143
e 278 198
e 279 75
e 279 160
e 279 175
e 279 186
e 279 226
e 279 297
e 280 54
e 280 87
e 280 92
e 280 143
e 280 211
e 280 282
e 281 10
e 281 86
e 281 136
e 281 269
e 281 293
e 281 298
e 282 17
e 282 170
e 282 205
e 282 213
e 282 223
e 282 254
e 283 4
e 283 71
e 283 92
e 283 115
e 283 183
e 283 236
e 284 12
e 284 13
e 284 64
e 284 132
e 284 133
e 284 190
e 285 109
e 285 111
e 285 116
e 285 118
e 285 180
e 285 185
e 286 8
e 286 28
e 286 77
e 286 98
e 286 275
e 286 290
e 287 8
e 287 84
e 287 97
e 287 143
e 287 171
e 287 205
e 288 45
e 288 89
e 288 185
e 288 230
e 288 236
e 288 273
e 289 28
e 289 171
e 289 185
e 289 212
e 289 227
e 289 230
e 290 37
e 290 40
e 290 46
e 290 101
e 290 190
e 290 223
e 291 50
e 291 95
e 291 102
e 291 171
e 291 211
e 291 235
e 292 76
e 292 83
e 292 84
e 292 219
e 292 236
e 292 299
e 293 8
e 293 11
e 293 160
e 293 221
e 293 226
e 293 228
e 294 13
e 294 96
e 294 154
e 294 182
e 294 192
e 294 210
e 295 15
e 295 90
e 295 117
e 295 145
e 295 170
e 295 260
e 296 100
e 296 102
e 296 104
e 296 197
e 296 204
e 296 208
e 297 53
e 297 114
e 297 130
e 297 131
e 297 232
e 297 283
e 298 7
e 298 43
e 298 193
e 298 202
e 298 208
e 298 252
e 299 66
e 299 89
e 299 172
e 299 255
e 299 257
e 299 262
e 300 8
e 300 99
e 300 110
e 300 152
e 300 249
e 300 299
